219.0
inf
214.6
224.0
219.2
221.4
inf
224.4
208.0
219.4
222.0
218.8
227.8
214.6
215.0
215.2
218.6
217.8
217.0
221.6
220.0
220.4
inf
221.4
228.2
216.0
206.0
221.0
inf
218.8
220.2
206.2
206.0
206.2
206.4
206.0
206.0
206.2
206.4
206.2
206.2
205.8
206.0
205.8
206.0
205.8
206.2
206.0
206.0
206.2
205.8
